p cnf 455 1
-405 -164 -384 -306 -114 -258 -26 -51 384 385 258 386 4 7 266 142 145 148 405 21 277 280 26 283 32 34 164 293 36 423 40 292 42 296 44 300 302 48 176 306 51 435 184 443 315 192 451 67 204 207 218 352 357 104 361 238 111 114 372 373 244 119 120 251 255 16)$.=5#<;-769?$/*# 0
